NAME : G100_2312_01
COMMENT : Generated CVRP instance (n=100)
TYPE : CVRP
DIMENSION : 101
EDGE_WEIGHT_TYPE : EUC_2D
CAPACITY : 7
NODE_COORD_SECTION
1    500  500 
2    984  130 
3    939  708 
4    590  673 
5    894  38  
6    808  633 
7    49   581 
8    976  928 
9    88   783 
10   100  46  
11   529  98  
12   569  735 
13   554  472 
14   966  215 
15   29   507 
16   794  182 
17   934  613 
18   411  691 
19   712  655 
20   741  837 
21   617  725 
22   600  782 
23   738  475 
24   755  674 
25   89   221 
26   597  612 
27   660  787 
28   656  298 
29   580  687 
30   752  662 
31   812  298 
32   955  121 
33   240  184 
34   264  178 
35   192  620 
36   196  224 
37   404  79  
38   505  860 
39   246  728 
40   190  558 
41   381  589 
42   650  716 
43   617  240 
44   743  688 
45   811  715 
46   580  819 
47   610  689 
48   715  125 
49   653  806 
50   656  805 
51   646  657 
52   680  634 
53   793  712 
54   76   439 
55   617  461 
56   771  464 
57   763  689 
58   932  262 
59   633  332 
60   523  643 
61   157  952 
62   942  117 
63   886  2   
64   793  659 
65   597  714 
66   232  161 
67   325  35  
68   592  690 
69   155  838 
70   897  679 
71   620  660 
72   455  120 
73   695  812 
74   272  90  
75   561  720 
76   767  999 
77   771  770 
78   772  650 
79   754  580 
80   605  500 
81   413  70  
82   784  770 
83   767  699 
84   236  245 
85   930  424 
86   503  146 
87   405  605 
88   728  529 
89   197  731 
90   806  604 
91   781  712 
92   541  614 
93   857  231 
94   20   363 
95   668  700 
96   461  166 
97   824  883 
98   960  719 
99   121  622 
100  409  49  
101  996  995 
DEMAND_SECTION
1    0   
2    1   
3    1   
4    1   
5    1   
6    1   
7    1   
8    1   
9    1   
10   1   
11   1   
12   1   
13   1   
14   1   
15   1   
16   1   
17   1   
18   1   
19   1   
20   1   
21   1   
22   1   
23   1   
24   1   
25   1   
26   1   
27   1   
28   1   
29   1   
30   1   
31   1   
32   1   
33   1   
34   1   
35   1   
36   1   
37   1   
38   1   
39   1   
40   1   
41   1   
42   1   
43   1   
44   1   
45   1   
46   1   
47   1   
48   1   
49   1   
50   1   
51   1   
52   1   
53   1   
54   1   
55   1   
56   1   
57   1   
58   1   
59   1   
60   1   
61   1   
62   1   
63   1   
64   1   
65   1   
66   1   
67   1   
68   1   
69   1   
70   1   
71   1   
72   1   
73   1   
74   1   
75   1   
76   1   
77   1   
78   1   
79   1   
80   1   
81   1   
82   1   
83   1   
84   1   
85   1   
86   1   
87   1   
88   1   
89   1   
90   1   
91   1   
92   1   
93   1   
94   1   
95   1   
96   1   
97   1   
98   1   
99   1   
100  1   
101  1   
DEPOT_SECTION
1
-1
EOF
